webassembly/ejemplos_dzn/13/folder13_json_36.dzn
TERM = { '.', 's(2)', 'in_1', 'local_0', 'local_1', 'in_6', 'in_2', 'in_4', 'in_3', 'in_8', 's(1)', 's(0)', 'in_7', 'in_5', 's(3)', 'in_0'};
null = '.';
s = 13;
n = 14;
ndeps = 5;
max_registers_sz = 5;
NR = 2;
registers = [|'local_0', 'local_1', |'local_1', 'in_6'|];
dependencies = [|'i32.load8_u_0', 'call[function_index(0)]_2', |'call[function_index(0)]_2', 'i32.store_6', |'i32.store_6', 'i32.store_9', |'i32.store_9', 'i32.store8_11', |'i32.load8_s_1', 'call[function_index(0)]_2'|];
GET_ENUM = { GET1, GET2, GET3, GET4, GET5, GET6, GET7};
SET_ENUM = { SET1, SET2, SET3, SET4, SET5, SET6, SET7};
TEE_ENUM = { TEE1, TEE2, TEE3, TEE4, TEE5, TEE6, TEE7};
N = 8;
OP = { 'i32.const_0', 'call[function_index(0)]_2', 'i32.load8_u_0', 'i32.load8_s_1', 'i32.add_0', 'i32.store_6', 'i32.store_9', 'i32.store8_11' };
in_ops = [0, 2, 1, 1, 2, 2, 2, 2 ];
out_ops = [1, 0, 1, 1, 1, 0, 0, 0 ];
in1 = ['.', 's(1)', 'in_0', 's(0)', 'local_1', 's(2)', 'in_4', 'in_7' ];
in2 = ['.', 'in_1', '.', '.', 'in_2', 'in_3', 'in_5', 'in_8' ];
in3 = ['.', '.', '.', '.', '.', '.', '.', '.' ];
out1 = ['s(3)', '.', 's(0)', 's(1)', 's(2)', '.', '.', '.' ];
out2 = ['.', '.', '.', '.', '.', '.', '.', '.' ];
out3 = ['.', '.', '.', '.', '.', '.', '.', '.' ];
comm = [false, false, false, false, true, false, false, false ];
gas = [1, 1, 1, 1, 1, 1, 1, 1 ];
sz = [1, 1, 1, 1, 1, 1, 1, 1 ];
stor = [false, true, false, false, false, true, true, true ];
lb = [ 1, 1, 1, 1, 1, 1, 1, 1 ];
ub = [ 13, 13, 13, 13, 13, 13, 13, 13 ];
startstack = [ 'in_0', 'in_1', 'in_2', 'in_3', 'in_4', 'in_5', 'in_6', 'in_7', 'in_8', null, null, null, null, null ];
endstack = [ 's(3)', null, null, null, null, null, null, null, null, null, null, null, null, null ];
